*Heading
** Job name: HW-1JobFile Model name: Model-1
** Generated by: Abaqus/CAE Student Edition 2021
*Preprint, echo=NO, model=NO, history=NO, contact=NO
**
** PARTS
**
*Part, name=Part-1
*Node
      1,  -1.95000005,           0.
      2, -0.949999988,           0.
      3, 0.0500000007,           0.
      4,   1.04999995,           0.
*Element, type=T2D2
1, 1, 2
2, 2, 3
3, 3, 4
*Nset, nset=Set-1
 1, 2
*Elset, elset=Set-1
 1,
*Nset, nset=Set-2
 2, 3
*Elset, elset=Set-2
 2,
*Nset, nset=Set-3
 3, 4
*Elset, elset=Set-3
 3,
** Section: Section-1
*Solid Section, elset=Set-1, material=Material-1
1.,
** Section: Section-2
*Solid Section, elset=Set-2, material=Material-2
0.5,
** Section: Section-3
*Solid Section, elset=Set-3, material=Material-3
0.25,
*End Part
**  
**
** ASSEMBLY
**
*Assembly, name=Assembly
**  
*Instance, name=Part-1-1, part=Part-1
*End Instance
**  
*Nset, nset=Set-1, instance=Part-1-1
 1,
*Nset, nset=Set-2, instance=Part-1-1
 2,
*Nset, nset=Set-3, instance=Part-1-1
 3,
*Nset, nset=Set-4, instance=Part-1-1
 4,
*End Assembly
** 
** MATERIALS
** 
*Material, name=Material-1
*Elastic
 2e+11, 0.3
*Material, name=Material-2
*Elastic
 1e+11, 0.3
*Material, name=Material-3
*Elastic
 1.5e+11, 0.3
** ----------------------------------------------------------------
** 
** STEP: Step-1
** 
*Step, name=Step-1, nlgeom=NO
*Static
1., 1., 1e-05, 1.
** 
** BOUNDARY CONDITIONS
** 
** Name: BC-1 Type: Displacement/Rotation
*Boundary
Set-1, 1, 1
Set-1, 2, 2
Set-1, 6, 6
** 
** LOADS
** 
** Name: Load-1   Type: Concentrated force
*Cload
Set-2, 1, 1000.
** Name: Load-2   Type: Concentrated force
*Cload
Set-3, 1, 500.
** Name: Load-3   Type: Concentrated force
*Cload
Set-4, 1, 500.
** 
** OUTPUT REQUESTS
** 
*Restart, write, frequency=0
** 
** FIELD OUTPUT: F-Output-1
** 
*Output, field, variable=PRESELECT
** 
** HISTORY OUTPUT: H-Output-1
** 
*Output, history, variable=PRESELECT
*End Step
