*Heading
** Job name: HW1P2Job Model name: HW1P2
** Generated by: Abaqus/CAE Student Edition 2021
*Preprint, echo=NO, model=NO, history=NO, contact=NO
**
** PARTS
**
*Part, name=fivePartTruss
*Node
      1,           0.,           0.
      2,          -1.,           0.
      3,           0.,           1.
      4,           1.,           0.
*Element, type=T2D2
1, 2, 1
2, 2, 3
3, 3, 4
4, 1, 4
5, 1, 3
*Nset, nset=TrussSet, generate
 1,  4,  1
*Elset, elset=TrussSet, generate
 1,  5,  1
** Section: TrussSection
*Solid Section, elset=TrussSet, material=Truss-Material
1.,
*End Part
**  
**
** ASSEMBLY
**
*Assembly, name=Assembly
**  
*Instance, name=fivePartTruss-1, part=fivePartTruss
*End Instance
**  
*Nset, nset=FixedSupportSet, instance=fivePartTruss-1
 2,
*Nset, nset=ForceSet, instance=fivePartTruss-1
 3,
*Nset, nset=RollerSupportSet, instance=fivePartTruss-1
 4,
*End Assembly
** 
** MATERIALS
** 
*Material, name=Truss-Material
*Elastic
 2e+11, 0.3
** ----------------------------------------------------------------
** 
** STEP: ApplyLoadAndBC
** 
*Step, name=ApplyLoadAndBC, nlgeom=NO
*Static
1., 1., 1e-05, 1.
** 
** BOUNDARY CONDITIONS
** 
** Name: FixedSupportLeftSide Type: Displacement/Rotation
*Boundary
FixedSupportSet, 1, 1
FixedSupportSet, 2, 2
** Name: RollerSupportRightSide Type: Displacement/Rotation
*Boundary
RollerSupportSet, 2, 2
** 
** LOADS
** 
** Name: AppliedForceF   Type: Concentrated force
*Cload
ForceSet, 1, 500.
ForceSet, 2, 866.025
** 
** OUTPUT REQUESTS
** 
*Restart, write, frequency=0
** 
** FIELD OUTPUT: F-Output-1
** 
*Output, field, variable=PRESELECT
** 
** HISTORY OUTPUT: H-Output-1
** 
*Output, history, variable=PRESELECT
*End Step
